c colouring generated by benchmark framework
p edge 300 21695
v 1 33
v 2 38
v 3 21
v 4 37
v 5 7
v 6 1
v 7 15
v 8 33
v 9 0
v 10 47
v 11 21
v 12 29
v 13 20
v 14 32
v 15 39
v 16 5
v 17 32
v 18 24
v 19 11
v 20 43
v 21 34
v 22 51
v 23 7
v 24 22
v 25 41
v 26 32
v 27 31
v 28 45
v 29 35
v 30 17
v 31 45
v 32 20
v 33 21
v 34 13
v 35 23
v 36 39
v 37 30
v 38 30
v 39 5
v 40 14
v 41 5
v 42 31
v 43 28
v 44 6
v 45 33
v 46 20
v 47 24
v 48 16
v 49 46
v 50 35
v 51 36
v 52 22
v 53 43
v 54 33
v 55 36
v 56 26
v 57 32
v 58 9
v 59 1
v 60 27
v 61 15
v 62 31
v 63 26
v 64 8
v 65 2
v 66 47
v 67 32
v 68 13
v 69 1
v 70 5
v 71 4
v 72 2
v 73 25
v 74 9
v 75 16
v 76 5
v 77 18
v 78 3
v 79 38
v 80 4
v 81 17
v 82 31
v 83 13
v 84 12
v 85 14
v 86 9
v 87 12
v 88 19
v 89 27
v 90 30
v 91 7
v 92 15
v 93 42
v 94 10
v 95 22
v 96 38
v 97 22
v 98 19
v 99 27
v 100 25
v 101 16
v 102 34
v 103 29
v 104 31
v 105 7
v 106 45
v 107 37
v 108 18
v 109 3
v 110 3
v 111 22
v 112 37
v 113 7
v 114 20
v 115 15
v 116 23
v 117 28
v 118 41
v 119 14
v 120 6
v 121 26
v 122 41
v 123 14
v 124 17
v 125 0
v 126 10
v 127 10
v 128 48
v 129 34
v 130 15
v 131 8
v 132 25
v 133 16
v 134 28
v 135 32
v 136 24
v 137 19
v 138 3
v 139 10
v 140 35
v 141 19
v 142 23
v 143 21
v 144 31
v 145 16
v 146 12
v 147 27
v 148 4
v 149 31
v 150 0
v 151 9
v 152 5
v 153 13
v 154 44
v 155 21
v 156 28
v 157 20
v 158 8
v 159 6
v 160 12
v 161 12
v 162 4
v 163 14
v 164 49
v 165 9
v 166 2
v 167 0
v 168 11
v 169 47
v 170 34
v 171 21
v 172 10
v 173 32
v 174 25
v 175 29
v 176 4
v 177 22
v 178 18
v 179 38
v 180 1
v 181 44
v 182 26
v 183 7
v 184 19
v 185 1
v 186 6
v 187 33
v 188 21
v 189 17
v 190 10
v 191 2
v 192 22
v 193 36
v 194 11
v 195 17
v 196 34
v 197 23
v 198 24
v 199 37
v 200 20
v 201 29
v 202 6
v 203 2
v 204 11
v 205 41
v 206 6
v 207 30
v 208 3
v 209 0
v 210 40
v 211 16
v 212 14
v 213 44
v 214 19
v 215 14
v 216 48
v 217 36
v 218 17
v 219 15
v 220 9
v 221 27
v 222 10
v 223 2
v 224 35
v 225 42
v 226 1
v 227 9
v 228 17
v 229 40
v 230 19
v 231 0
v 232 36
v 233 12
v 234 18
v 235 8
v 236 13
v 237 1
v 238 1
v 239 40
v 240 4
v 241 14
v 242 29
v 243 29
v 244 4
v 245 33
v 246 48
v 247 13
v 248 24
v 249 29
v 250 42
v 251 23
v 252 34
v 253 51
v 254 26
v 255 35
v 256 28
v 257 51
v 258 31
v 259 25
v 260 2
v 261 0
v 262 4
v 263 38
v 264 11
v 265 6
v 266 35
v 267 27
v 268 36
v 269 41
v 270 7
v 271 39
v 272 3
v 273 38
v 274 42
v 275 25
v 276 50
v 277 9
v 278 46
v 279 27
v 280 23
v 281 30
v 282 45
v 283 5
v 284 4
v 285 21
v 286 37
v 287 20
v 288 18
v 289 35
v 290 50
v 291 8
v 292 3
v 293 30
v 294 41
v 295 3
v 296 11
v 297 8
v 298 2
v 299 26
v 300 28
